/*********************************************
 * OPL 12.6.0.0 Data
 * Author: Diya Joseph
 * Creation Date: 29-Nov-2017 at 3:00:36 PM
 *********************************************/


nNurses=847;
total_hours=24;
minHours=10;
maxHours=11;
maxConsec=4;
maxPresence=20;
demand_h=[44 16 50 41 105 39 121 51 556 564 248 311 465 438 365 102 194 28 79 25 27 51 123 42];